p edge 41 87
e 1 28
e 1 38
e 1 41
e 2 8
e 2 10
e 2 11
e 2 14
e 2 18
e 2 24
e 3 8
e 3 10
e 3 29
e 3 38
e 4 5
e 4 19
e 4 21
e 4 32
e 4 33
e 4 39
e 5 17
e 5 24
e 5 38
e 6 10
e 6 17
e 6 18
e 6 19
e 6 20
e 6 41
e 7 12
e 7 29
e 7 31
e 7 40
e 8 10
e 10 12
e 10 13
e 10 17
e 10 18
e 10 36
e 10 37
e 11 31
e 11 32
e 11 33
e 12 38
e 13 18
e 13 25
e 13 27
e 14 16
e 15 20
e 15 24
e 15 28
e 15 33
e 15 36
e 16 32
e 16 34
e 17 35
e 18 27
e 18 32
e 18 41
e 19 23
e 19 26
e 19 30
e 20 34
e 20 40
e 21 33
e 21 36
e 21 37
e 21 40
e 22 24
e 22 27
e 22 30
e 22 31
e 23 31
e 23 33
e 24 33
e 25 32
e 25 40
e 27 33
e 27 35
e 27 37
e 28 30
e 29 36
e 31 32
e 31 36
e 31 38
e 31 39
e 32 38
e 32 40
